&CONTROL
   calculation = 'scf'
   prefix = 'hydrogen'
   pseudo_dir = '../pseudo'  ! Specify the path to your pseudopotential directory
   outdir = './tmp'
/

&SYSTEM
   ibrav = 0
   nat = 1
   ntyp = 1
   ecutwfc = 50
   ecutrho = 500  
   occupations = 'smearing'
   smearing = 'gaussian'
   degauss = 0.03
   nspin = 2
   nosym = .true.
   starting_magnetization = 1.0
/

&ELECTRONS
   conv_thr = 1.0e-8
   mixing_beta = 0.7
/

ATOMIC_SPECIES
   H 1.00794 H.pbe-kjpaw_psl.1.0.0.UPF 

CELL_PARAMETERS {angstrom}
  10.00000000000d0  0.000000000000d0  0.000000000000d0
  0.000000000000d0  10.00000000000d0  0.000000000000d0
  0.000000000000d0  0.000000000000d0  10.00000000000d0


ATOMIC_POSITIONS angstrom
   H 5.0 5.0 5.0

K_POINTS gamma
